CMD:
./solvers/bin/cadical --plain --no-reduce -t 1600 ./data/cnfs//cal106/cal106.48.cnf

c --- [ banner ] -------------------------------------------------------------
c 
c CaDiCaL SAT Solver
c Copyright (c) 2016-2024
c A. Biere, M. Fleury, N. Froleyks, K. Fazekas, F. Pollitt, T. Faller
c JKU Linz, University of Freiburg, TU Wien
c 
c Version 2.1.3 5296d3d2a9bf48c154ab2acb5e44625776d821bf
c g++ (Gentoo 12.3.1_p20230526 p2) 12.3.1 20230526 -Wall -Wextra -O3 -DNDEBUG
c Sat Aug 9 07:26:21 PDT 2025 Linux cedar2.int.cedar.computecanada.ca 5.14.0-362.24.2.el9_3.x86_64 x86_64
c 
c --- [ limit ] --------------------------------------------------------------
c 
c setting time limit to 1600 seconds real time (due to '-t 1600')
c 
c --- [ parsing input ] ------------------------------------------------------
c 
c reading DIMACS file from './data/cnfs//cal106/cal106.48.cnf'
c opening file to read './data/cnfs//cal106/cal106.48.cnf'
c found 'p cnf 1381196 3934438' header
c parsed 3934438 clauses in 0.66 seconds process time
c 
c --- [ options ] ------------------------------------------------------------
c 
c   --compact=false                (different from default 'true')
c   --decompose=false              (different from default 'true')
c   --deduplicate=false            (different from default 'true')
c   --elim=false                   (different from default 'true')
c   --probe=false                  (different from default 'true')
c   --reduce=false                 (different from default 'true')
c   --subsume=false                (different from default 'true')
c   --ternary=false                (different from default 'true')
c   --transred=false               (different from default 'true')
c   --vivify=false                 (different from default 'true')
c 
c --- [ solving ] ------------------------------------------------------------
c 
c time measured in process time since initialization
c 
c  seconds   reductions  redundant   irredundant
c          MB    restarts       trail         variables
c           level   conflicts       glue            remaining
c 
c *  0.66 590  0 0   0    0    0  0% 0 3674928 1323285 96%
c {  0.67 591  0 0   0    0    0  0% 0 3674928 1323285 96%
c i  0.68 591 1228 0   0   31   28  6% 3 3674928 1323281 96%
c i  0.71 591 256 0  20  448  415  5% 5 3674928 1323275 96%
c }  2.29 607 13653 0  20 1050  920 29% 3 3674928 1323275 96%
c [  2.29 607  0 0  20 1050  920  0% 0 3674928 1323275 96%
c O  2.32 607 1419 0  20 1051  921  6% 1 3674928 1323275 96%
c i  2.67 609 53281 0  20 1561 1274 85% 4 3674928 1323273 96%
c i  2.67 609 53321 0  20 1565 1277 85% 4 3674928 1323269 96%
c i  2.68 609 54157 0  20 1665 1371 86% 4 3674928 1323265 96%
c i  2.71 609 54887 0  20 1791 1490 87% 4 3674928 1323260 96%
c i  2.71 609 55244 0  20 1875 1567 88% 4 3674928 1323258 96%
c i  2.71 609 55259 0  20 1879 1570 88% 4 3674928 1323254 96%
c ]  2.83 609 29491 0  21 3050 2662 51% 8 3674928 1323254 96%
c {  2.83 609 13653 0  21 3050 2662 29% 3 3674928 1323254 96%
c F  2.84 609 13595 0  21 3054 2666 29% 3 3674928 1323254 96%
c #  7.55 612 3536 0 367 6055 5415 20% 4 3674928 1323254 96%
c }  8.09 612 2846 0 437 7052 6298 19% 4 3674928 1323254 96%
c [  8.09 612 29491 0 437 7052 6298 51% 8 3674928 1323254 96%
c i  8.17 613 27692 0 438 7188 6425 48% 8 3674928 1323253 96%
c 
c  seconds      reductions  redundant   irredundant
c          MB       restarts       trail         variables
c             level    conflicts       glue            remaining
c 
c i  8.20 613 27460 0 438 7214 6447 48% 8 3674928 1323252 96%
c i  8.25 613 27115 0 438 7265 6485 47% 8 3674928 1323251 96%
c i  8.30 613 27012 0 438 7293 6508 47% 7 3674928 1323250 96%
c i  8.35 613 27003 0 438 7329 6536 47% 7 3674928 1323249 96%
c i  8.36 613 27017 0 438 7336 6542 47% 7 3674928 1323248 96%
c I 10.49 614 29927 0 439 10056 9057 55% 17 3674928 1323224 96%
c i 10.58 614 29036 0 439 10206 9190 54% 17 3674928 1323221 96%
c i 10.58 614 29030 0 439 10207 9190 54% 17 3674928 1323218 96%
c i 10.67 614 28783 0 439 10250 9230 53% 17 3674928 1323213 96%
c i 10.68 614 28699 0 439 10265 9244 53% 17 3674928 1323212 96%
c i 10.68 614 28693 0 439 10266 9244 53% 17 3674928 1323211 96%
c ] 13.48 615 14734 0 442 15053 13261 35% 25 3674928 1323211 96%
c { 13.48 615 2846 0 442 15053 13261 19% 4 3674928 1323211 96%
c B 13.51 615 2844 0 442 15057 13265 19% 4 3674928 1323211 96%
c i 18.20 616 1943 0 787 17495 15506 18% 4 3674928 1323210 96%
c W 23.34 616 1348 0 1035 21061 18729 17% 4 3616087 1323210 96%
c i 23.74 616 1313 0 1090 21356 19009 17% 4 3616087 1323207 96%
c i 26.74 616 1137 0 1277 23442 20924 17% 4 3616087 1323204 96%
c i 30.11 616 1017 0 1484 25240 22536 17% 4 3616087 1323199 96%
c i 30.23 616 1013 0 1500 25305 22593 17% 4 3616087 1323194 96%
c 
c  seconds    reductions     redundant   irredundant
c          MB     restarts          trail         variables
c            level     conflicts        glue            remaining
c 
c i 32.05 616 981 0 1611 25828 23080 17% 4 3616087 1323191 96%
c F 35.07 616 869 0 1866 28062 25079 17% 5 3616087 1323191 96%
c } 38.18 616 759 0 2049 31053 27824 17% 5 3616087 1323191 96%
c [ 38.18 616 14734 0 2049 31053 27824 35% 25 3616087 1323191 96%
... skipped 292 lines ...
c   seconds     reductions        redundant     irredundant
c            MB      restarts             trail          variables
c              level       conflicts          glue             remaining
c 
c i 1249.66 910 172 0 72475 1485420 967073 18% 11 3605230 1320995 96%
c i 1249.66 910 172 0 72475 1485442 967094 18% 11 3605230 1320991 96%
c i 1268.82 910 183 0 73138 1502036 982384 18% 11 3605230 1320990 96%
c i 1279.82 910 183 0 73545 1508307 988087 19% 11 3605230 1320987 96%
c i 1290.42 910 181 0 73965 1515645 994808 19% 11 3605230 1320985 96%
c i 1290.42 910 181 0 73965 1515674 994831 19% 11 3605230 1320981 96%
c i 1299.83 910 179 0 74397 1521176 999858 19% 11 3605230 1320978 96%
c i 1310.56 910 178 0 74859 1526774 1004971 19% 11 3605230 1320975 96%
c i 1310.58 910 178 0 74859 1526916 1005102 19% 11 3605230 1320972 96%
c i 1316.30 910 177 0 75103 1531374 1009099 19% 11 3605230 1320969 96%
c B 1326.25 910 175 0 75590 1540160 1017112 18% 11 3605230 1320969 96%
c i 1359.22 910 169 0 77155 1555916 1031400 18% 11 3605230 1320966 96%
c i 1389.07 910 161 0 78523 1582491 1055352 18% 11 3605230 1320964 96%
c i 1401.24 910 161 0 79298 1588662 1060966 18% 11 3605230 1320960 96%
c i 1401.29 910 161 0 79298 1588764 1061058 18% 11 3605230 1320958 96%
c W 1412.50 932 159 0 79711 1596161 1067844 18% 11 3604965 1320957 96%
c i 1419.13 932 158 0 80012 1601762 1072815 17% 11 3604965 1320954 96%
c i 1419.13 932 158 0 80012 1601798 1072847 17% 11 3604965 1320951 96%
c i 1419.26 932 160 0 80017 1601999 1073030 18% 11 3604965 1320948 96%
c i 1419.30 932 160 0 80017 1602108 1073132 18% 11 3604965 1320946 96%
c 
c   seconds     reductions         redundant     irredundant
c            MB      restarts              trail          variables
c              level       conflicts           glue             remaining
c 
c i 1419.30 932 160 0 80017 1602115 1073137 18% 11 3604965 1320942 96%
c i 1419.30 932 161 0 80017 1602127 1073148 18% 11 3604965 1320941 96%
c i 1452.44 932 155 0 81632 1622523 1091562 17% 12 3604965 1320939 96%
c i 1452.44 932 155 0 81632 1622535 1091569 17% 12 3604965 1320935 96%
c i 1458.09 934 154 0 81947 1628398 1096776 17% 12 3604965 1320934 96%
c i 1465.85 934 152 0 82332 1633567 1101536 17% 12 3604965 1320931 96%
c i 1465.85 934 152 0 82332 1633568 1101536 17% 12 3604965 1320928 96%
c i 1480.46 934 152 0 82893 1647068 1113955 17% 12 3604965 1320927 96%
c # 1489.67 934 149 0 83546 1653165 1119498 17% 12 3604965 1320927 96%
c i 1498.19 934 147 0 84088 1657630 1123394 17% 12 3604965 1320925 96%
c i 1504.45 934 147 0 84221 1660767 1126230 17% 12 3604965 1320921 96%
c i 1520.60 934 146 0 84875 1671629 1136056 17% 12 3604965 1320919 96%
c i 1539.14 934 147 0 85735 1680994 1144565 17% 13 3604965 1320915 96%
c i 1543.06 934 147 0 85925 1682770 1146206 17% 13 3604965 1320913 96%
c B 1589.01 934 152 0 88093 1711171 1172074 17% 13 3604965 1320912 96%
c } 1592.18 934 152 0 88250 1713393 1174087 17% 13 3604965 1320912 96%
c ? 1592.18 934 152 0 88250 1713393 1174087 17% 13 3604965 1320912 96%
c 
c --- [ result ] -------------------------------------------------------------
c 
c UNKNOWN
c 
c --- [ run-time profiling ] -------------------------------------------------
c 
c process time taken by individual solving procedures
c (percentage relative to process time for solving)
c 
c      1591.52  100.00% search
c      1206.21   75.79% unstable
c       368.65   23.16% stable
c        16.65    1.05% walk
c         0.66    0.04% parse
c         0.01    0.00% lucky
c         0.00    0.00% simplify
c   =================================
c      1591.52   99.96% solve
c 
c last line shows process time for solving
c (percentage relative to total process time)
c 
c --- [ statistics ] ---------------------------------------------------------
c 
c chronological:            507846        29.64 %  of conflicts
c conflicts:               1713393      1076.58    per second
c decisions:              13141168      8257.00    per second
c fixed:                     60283         4.36 %  of all variables
c learned:                 1657347        96.73 %  per conflict
c learned_lits:          134887575       100.00 %  learned literals
c minimized:                     0         0.00 %  learned literals
c shrunken:               48163430        35.71 %  learned literals
c minishrunken:           25839484        19.16 %  learned literals
c otfs:                       6971         0.41 %  of conflict
c propagations:        14113406917         8.87 M  per second
c rephased:                     58     29541.26    interval
c restarts:                  88250        19.42    interval
c stabilizing:                   5        39.79 %  of conflicts
c subsumed:                 213625         4.01 %  of all clauses
c strengthened:               6534         0.12 %  of all clauses
c walked:                       18     95188.50    interval
c 
c seconds are measured in process time for solving
c 
c --- [ resources ] ----------------------------------------------------------
c 
c total process time since initialization:      1592.18    seconds
c total real time since initialization:         1600.00    seconds
c maximum resident set size of process:         1252.76    MB
c 
c --- [ shutting down ] ------------------------------------------------------
c 
c exit 0
